c colouring generated by benchmark framework
p edge 74 301
v 1 9
v 2 1
v 3 7
v 4 0
v 5 7
v 6 4
v 7 2
v 8 4
v 9 3
v 10 10
v 11 5
v 12 4
v 13 4
v 14 1
v 15 0
v 16 10
v 17 9
v 18 0
v 19 6
v 20 2
v 21 7
v 22 10
v 23 10
v 24 1
v 25 10
v 26 3
v 27 2
v 28 1
v 29 6
v 30 0
v 31 10
v 32 5
v 33 4
v 34 0
v 35 2
v 36 0
v 37 9
v 38 2
v 39 1
v 40 0
v 41 7
v 42 9
v 43 2
v 44 7
v 45 3
v 46 2
v 47 3
v 48 8
v 49 1
v 50 2
v 51 9
v 52 5
v 53 6
v 54 0
v 55 8
v 56 4
v 57 5
v 58 4
v 59 3
v 60 3
v 61 7
v 62 9
v 63 3
v 64 3
v 65 6
v 66 7
v 67 6
v 68 9
v 69 2
v 70 0
v 71 1
v 72 0
v 73 1
v 74 8
